p cnf 140 851
-1 0
-3 0
-4 0
2 0
30 6 0
-30 -6 0
-5 -6 0
-5 -7 0
-5 -8 0
-6 -7 0
-6 -8 0
-7 -8 0
-5 33 1 0
-5 33 9 0
-5 1 9 0
-6 34 2 0
-6 34 10 0
-6 2 10 0
-7 35 3 0
-7 35 11 0
-7 3 11 0
-8 36 4 0
-8 36 12 0
-8 4 12 0
-5 -33 -1 -9 0
-6 -34 -2 -10 0
-7 -35 -3 -11 0
-8 -36 -4 -12 0
-9 -10 0
-9 -11 0
-9 -12 0
-10 -11 0
-10 -12 0
-11 -12 0
-9 37 5 0
-9 37 13 0
-9 5 13 0
-10 38 6 0
-10 38 14 0
-10 6 14 0
-11 39 7 0
-11 39 15 0
-11 7 15 0
-12 40 8 0
-12 40 16 0
-12 8 16 0
-9 -37 -5 -13 0
-10 -38 -6 -14 0
-11 -39 -7 -15 0
-12 -40 -8 -16 0
-13 -14 0
-13 -15 0
-13 -16 0
-14 -15 0
-14 -16 0
-15 -16 0
-13 41 9 0
-13 41 17 0
-13 9 17 0
-14 42 10 0
-14 42 18 0
-14 10 18 0
-15 43 11 0
-15 43 19 0
-15 11 19 0
-16 44 12 0
-16 44 20 0
-16 12 20 0
-13 -41 -9 -17 0
-14 -42 -10 -18 0
-15 -43 -11 -19 0
-16 -44 -12 -20 0
-17 -18 0
-17 -19 0
-17 -20 0
-18 -19 0
-18 -20 0
-19 -20 0
-17 45 13 0
-17 45 21 0
-17 13 21 0
-18 46 14 0
-18 46 22 0
-18 14 22 0
-19 47 15 0
-19 47 23 0
-19 15 23 0
-20 48 16 0
-20 48 24 0
-20 16 24 0
-17 -45 -13 -21 0
-18 -46 -14 -22 0
-19 -47 -15 -23 0
-20 -48 -16 -24 0
-21 -22 0
-21 -23 0
-21 -24 0
-22 -23 0
-22 -24 0
-23 -24 0
-21 49 17 0
-21 49 25 0
-21 17 25 0
-22 50 18 0
-22 50 26 0
-22 18 26 0
-23 51 19 0
-23 51 27 0
-23 19 27 0
-24 52 20 0
-24 52 28 0
-24 20 28 0
-21 -49 -17 -25 0
-22 -50 -18 -26 0
-23 -51 -19 -27 0
-24 -52 -20 -28 0
-25 0
-27 0
-28 0
26 0
54 22 0
-54 -22 0
-29 -30 0
-29 -31 0
-29 -32 0
-30 -31 0
-30 -32 0
-31 -32 0
-29 57 1 0
-29 57 33 0
-29 1 33 0
-30 58 2 0
-30 58 34 0
-30 2 34 0
-31 59 3 0
-31 59 35 0
-31 3 35 0
-32 60 4 0
-32 60 36 0
-32 4 36 0
-29 -57 -1 -33 0
-30 -58 -2 -34 0
-31 -59 -3 -35 0
-32 -60 -4 -36 0
-34 0
-35 0
-36 0
33 0
61 5 37 29 0
-61 -5 0
-61 -37 0
-61 -29 0
-5 -37 0
-5 -29 0
-37 -29 0
-37 -38 0
-37 -39 0
-37 -40 0
-38 -39 0
-38 -40 0
-39 -40 0
-37 65 9 41 0
-37 65 9 33 0
-37 65 41 33 0
-37 9 41 33 0
-38 66 10 42 0
-38 66 10 34 0
-38 66 42 34 0
-38 10 42 34 0
-39 67 11 43 0
-39 67 11 35 0
-39 67 43 35 0
-39 11 43 35 0
-40 68 12 44 0
-40 68 12 36 0
-40 68 44 36 0
-40 12 44 36 0
-37 -65 -9 -41 0
-37 -65 -9 -33 0
-37 -65 -41 -33 0
-37 -9 -41 -33 0
-38 -66 -10 -42 0
-38 -66 -10 -34 0
-38 -66 -42 -34 0
-38 -10 -42 -34 0
-39 -67 -11 -43 0
-39 -67 -11 -35 0
-39 -67 -43 -35 0
-39 -11 -43 -35 0
-40 -68 -12 -44 0
-40 -68 -12 -36 0
-40 -68 -44 -36 0
-40 -12 -44 -36 0
-41 -42 0
-41 -43 0
-41 -44 0
-42 -43 0
-42 -44 0
-43 -44 0
-41 69 13 45 0
-41 69 13 37 0
-41 69 45 37 0
-41 13 45 37 0
-42 70 14 46 0
-42 70 14 38 0
-42 70 46 38 0
-42 14 46 38 0
-43 71 15 47 0
-43 71 15 39 0
-43 71 47 39 0
-43 15 47 39 0
-44 72 16 48 0
-44 72 16 40 0
-44 72 48 40 0
-44 16 48 40 0
-41 -69 -13 -45 0
-41 -69 -13 -37 0
-41 -69 -45 -37 0
-41 -13 -45 -37 0
-42 -70 -14 -46 0
-42 -70 -14 -38 0
-42 -70 -46 -38 0
-42 -14 -46 -38 0
-43 -71 -15 -47 0
-43 -71 -15 -39 0
-43 -71 -47 -39 0
-43 -15 -47 -39 0
-44 -72 -16 -48 0
-44 -72 -16 -40 0
-44 -72 -48 -40 0
-44 -16 -48 -40 0
-45 -46 0
-45 -47 0
-45 -48 0
-46 -47 0
-46 -48 0
-47 -48 0
-45 73 17 49 0
-45 73 17 41 0
-45 73 49 41 0
-45 17 49 41 0
-46 74 18 50 0
-46 74 18 42 0
-46 74 50 42 0
-46 18 50 42 0
-47 75 19 51 0
-47 75 19 43 0
-47 75 51 43 0
-47 19 51 43 0
-48 76 20 52 0
-48 76 20 44 0
-48 76 52 44 0
-48 20 52 44 0
-45 -73 -17 -49 0
-45 -73 -17 -41 0
-45 -73 -49 -41 0
-45 -17 -49 -41 0
-46 -74 -18 -50 0
-46 -74 -18 -42 0
-46 -74 -50 -42 0
-46 -18 -50 -42 0
-47 -75 -19 -51 0
-47 -75 -19 -43 0
-47 -75 -51 -43 0
-47 -19 -51 -43 0
-48 -76 -20 -52 0
-48 -76 -20 -44 0
-48 -76 -52 -44 0
-48 -20 -52 -44 0
-49 0
-50 0
-51 0
52 0
80 24 56 48 0
-80 -24 0
-80 -56 0
-80 -48 0
-24 -56 0
-24 -48 0
-56 -48 0
-53 0
-54 0
-56 0
55 0
83 27 51 0
-83 -27 0
-83 -51 0
-27 -51 0
-57 -58 0
-57 -59 0
-57 -60 0
-58 -59 0
-58 -60 0
-59 -60 0
-57 85 29 0
-57 85 61 0
-57 29 61 0
-58 86 30 0
-58 86 62 0
-58 30 62 0
-59 87 31 0
-59 87 63 0
-59 31 63 0
-60 88 32 0
-60 88 64 0
-60 32 64 0
-57 -85 -29 -61 0
-58 -86 -30 -62 0
-59 -87 -31 -63 0
-60 -88 -32 -64 0
-61 -62 0
-61 -63 0
-61 -64 0
-62 -63 0
-62 -64 0
-63 -64 0
-61 89 33 65 0
-61 89 33 57 0
-61 89 65 57 0
-61 33 65 57 0
-62 90 34 66 0
-62 90 34 58 0
-62 90 66 58 0
-62 34 66 58 0
-63 91 35 67 0
-63 91 35 59 0
-63 91 67 59 0
-63 35 67 59 0
-64 92 36 68 0
-64 92 36 60 0
-64 92 68 60 0
-64 36 68 60 0
-61 -89 -33 -65 0
-61 -89 -33 -57 0
-61 -89 -65 -57 0
-61 -33 -65 -57 0
-62 -90 -34 -66 0
-62 -90 -34 -58 0
-62 -90 -66 -58 0
-62 -34 -66 -58 0
-63 -91 -35 -67 0
-63 -91 -35 -59 0
-63 -91 -67 -59 0
-63 -35 -67 -59 0
-64 -92 -36 -68 0
-64 -92 -36 -60 0
-64 -92 -68 -60 0
-64 -36 -68 -60 0
-65 -66 0
-65 -67 0
-65 -68 0
-66 -67 0
-66 -68 0
-67 -68 0
-65 93 37 69 0
-65 93 37 61 0
-65 93 69 61 0
-65 37 69 61 0
-66 94 38 70 0
-66 94 38 62 0
-66 94 70 62 0
-66 38 70 62 0
-67 95 39 71 0
-67 95 39 63 0
-67 95 71 63 0
-67 39 71 63 0
-68 96 40 72 0
-68 96 40 64 0
-68 96 72 64 0
-68 40 72 64 0
-65 -93 -37 -69 0
-65 -93 -37 -61 0
-65 -93 -69 -61 0
-65 -37 -69 -61 0
-66 -94 -38 -70 0
-66 -94 -38 -62 0
-66 -94 -70 -62 0
-66 -38 -70 -62 0
-67 -95 -39 -71 0
-67 -95 -39 -63 0
-67 -95 -71 -63 0
-67 -39 -71 -63 0
-68 -96 -40 -72 0
-68 -96 -40 -64 0
-68 -96 -72 -64 0
-68 -40 -72 -64 0
-69 -70 0
-69 -71 0
-69 -72 0
-70 -71 0
-70 -72 0
-71 -72 0
-69 97 41 73 0
-69 97 41 65 0
-69 97 73 65 0
-69 41 73 65 0
-70 98 42 74 0
-70 98 42 66 0
-70 98 74 66 0
-70 42 74 66 0
-71 99 43 75 0
-71 99 43 67 0
-71 99 75 67 0
-71 43 75 67 0
-72 100 44 76 0
-72 100 44 68 0
-72 100 76 68 0
-72 44 76 68 0
-69 -97 -41 -73 0
-69 -97 -41 -65 0
-69 -97 -73 -65 0
-69 -41 -73 -65 0
-70 -98 -42 -74 0
-70 -98 -42 -66 0
-70 -98 -74 -66 0
-70 -42 -74 -66 0
-71 -99 -43 -75 0
-71 -99 -43 -67 0
-71 -99 -75 -67 0
-71 -43 -75 -67 0
-72 -100 -44 -76 0
-72 -100 -44 -68 0
-72 -100 -76 -68 0
-72 -44 -76 -68 0
-73 -74 0
-73 -75 0
-73 -76 0
-74 -75 0
-74 -76 0
-75 -76 0
-73 101 45 77 0
-73 101 45 69 0
-73 101 77 69 0
-73 45 77 69 0
-74 102 46 78 0
-74 102 46 70 0
-74 102 78 70 0
-74 46 78 70 0
-75 103 47 79 0
-75 103 47 71 0
-75 103 79 71 0
-75 47 79 71 0
-76 104 48 80 0
-76 104 48 72 0
-76 104 80 72 0
-76 48 80 72 0
-73 -101 -45 -77 0
-73 -101 -45 -69 0
-73 -101 -77 -69 0
-73 -45 -77 -69 0
-74 -102 -46 -78 0
-74 -102 -46 -70 0
-74 -102 -78 -70 0
-74 -46 -78 -70 0
-75 -103 -47 -79 0
-75 -103 -47 -71 0
-75 -103 -79 -71 0
-75 -47 -79 -71 0
-76 -104 -48 -80 0
-76 -104 -48 -72 0
-76 -104 -80 -72 0
-76 -48 -80 -72 0
-77 -78 0
-77 -79 0
-77 -80 0
-78 -79 0
-78 -80 0
-79 -80 0
-77 105 49 81 0
-77 105 49 73 0
-77 105 81 73 0
-77 49 81 73 0
-78 106 50 82 0
-78 106 50 74 0
-78 106 82 74 0
-78 50 82 74 0
-79 107 51 83 0
-79 107 51 75 0
-79 107 83 75 0
-79 51 83 75 0
-80 108 52 84 0
-80 108 52 76 0
-80 108 84 76 0
-80 52 84 76 0
-77 -105 -49 -81 0
-77 -105 -49 -73 0
-77 -105 -81 -73 0
-77 -49 -81 -73 0
-78 -106 -50 -82 0
-78 -106 -50 -74 0
-78 -106 -82 -74 0
-78 -50 -82 -74 0
-79 -107 -51 -83 0
-79 -107 -51 -75 0
-79 -107 -83 -75 0
-79 -51 -83 -75 0
-80 -108 -52 -84 0
-80 -108 -52 -76 0
-80 -108 -84 -76 0
-80 -52 -84 -76 0
-81 -82 0
-81 -83 0
-81 -84 0
-82 -83 0
-82 -84 0
-83 -84 0
-81 109 53 0
-81 109 77 0
-81 53 77 0
-82 110 54 0
-82 110 78 0
-82 54 78 0
-83 111 55 0
-83 111 79 0
-83 55 79 0
-84 112 56 0
-84 112 80 0
-84 56 80 0
-81 -109 -53 -77 0
-82 -110 -54 -78 0
-83 -111 -55 -79 0
-84 -112 -56 -80 0
-85 -86 0
-85 -87 0
-85 -88 0
-86 -87 0
-86 -88 0
-87 -88 0
-85 113 57 0
-85 113 89 0
-85 57 89 0
-86 114 58 0
-86 114 90 0
-86 58 90 0
-87 115 59 0
-87 115 91 0
-87 59 91 0
-88 116 60 0
-88 116 92 0
-88 60 92 0
-85 -113 -57 -89 0
-86 -114 -58 -90 0
-87 -115 -59 -91 0
-88 -116 -60 -92 0
-89 -90 0
-89 -91 0
-89 -92 0
-90 -91 0
-90 -92 0
-91 -92 0
-89 117 61 93 0
-89 117 61 85 0
-89 117 93 85 0
-89 61 93 85 0
-90 118 62 94 0
-90 118 62 86 0
-90 118 94 86 0
-90 62 94 86 0
-91 119 63 95 0
-91 119 63 87 0
-91 119 95 87 0
-91 63 95 87 0
-92 120 64 96 0
-92 120 64 88 0
-92 120 96 88 0
-92 64 96 88 0
-89 -117 -61 -93 0
-89 -117 -61 -85 0
-89 -117 -93 -85 0
-89 -61 -93 -85 0
-90 -118 -62 -94 0
-90 -118 -62 -86 0
-90 -118 -94 -86 0
-90 -62 -94 -86 0
-91 -119 -63 -95 0
-91 -119 -63 -87 0
-91 -119 -95 -87 0
-91 -63 -95 -87 0
-92 -120 -64 -96 0
-92 -120 -64 -88 0
-92 -120 -96 -88 0
-92 -64 -96 -88 0
-93 -94 0
-93 -95 0
-93 -96 0
-94 -95 0
-94 -96 0
-95 -96 0
-93 121 65 97 0
-93 121 65 89 0
-93 121 97 89 0
-93 65 97 89 0
-94 122 66 98 0
-94 122 66 90 0
-94 122 98 90 0
-94 66 98 90 0
-95 123 67 99 0
-95 123 67 91 0
-95 123 99 91 0
-95 67 99 91 0
-96 124 68 100 0
-96 124 68 92 0
-96 124 100 92 0
-96 68 100 92 0
-93 -121 -65 -97 0
-93 -121 -65 -89 0
-93 -121 -97 -89 0
-93 -65 -97 -89 0
-94 -122 -66 -98 0
-94 -122 -66 -90 0
-94 -122 -98 -90 0
-94 -66 -98 -90 0
-95 -123 -67 -99 0
-95 -123 -67 -91 0
-95 -123 -99 -91 0
-95 -67 -99 -91 0
-96 -124 -68 -100 0
-96 -124 -68 -92 0
-96 -124 -100 -92 0
-96 -68 -100 -92 0
-97 -98 0
-97 -99 0
-97 -100 0
-98 -99 0
-98 -100 0
-99 -100 0
-97 125 69 101 0
-97 125 69 93 0
-97 125 101 93 0
-97 69 101 93 0
-98 126 70 102 0
-98 126 70 94 0
-98 126 102 94 0
-98 70 102 94 0
-99 127 71 103 0
-99 127 71 95 0
-99 127 103 95 0
-99 71 103 95 0
-100 128 72 104 0
-100 128 72 96 0
-100 128 104 96 0
-100 72 104 96 0
-97 -125 -69 -101 0
-97 -125 -69 -93 0
-97 -125 -101 -93 0
-97 -69 -101 -93 0
-98 -126 -70 -102 0
-98 -126 -70 -94 0
-98 -126 -102 -94 0
-98 -70 -102 -94 0
-99 -127 -71 -103 0
-99 -127 -71 -95 0
-99 -127 -103 -95 0
-99 -71 -103 -95 0
-100 -128 -72 -104 0
-100 -128 -72 -96 0
-100 -128 -104 -96 0
-100 -72 -104 -96 0
-102 0
-103 0
-104 0
101 0
129 73 105 97 0
-129 -73 0
-129 -105 0
-129 -97 0
-73 -105 0
-73 -97 0
-105 -97 0
-105 -106 0
-105 -107 0
-105 -108 0
-106 -107 0
-106 -108 0
-107 -108 0
-105 133 77 109 0
-105 133 77 101 0
-105 133 109 101 0
-105 77 109 101 0
-106 134 78 110 0
-106 134 78 102 0
-106 134 110 102 0
-106 78 110 102 0
-107 135 79 111 0
-107 135 79 103 0
-107 135 111 103 0
-107 79 111 103 0
-108 136 80 112 0
-108 136 80 104 0
-108 136 112 104 0
-108 80 112 104 0
-105 -133 -77 -109 0
-105 -133 -77 -101 0
-105 -133 -109 -101 0
-105 -77 -109 -101 0
-106 -134 -78 -110 0
-106 -134 -78 -102 0
-106 -134 -110 -102 0
-106 -78 -110 -102 0
-107 -135 -79 -111 0
-107 -135 -79 -103 0
-107 -135 -111 -103 0
-107 -79 -111 -103 0
-108 -136 -80 -112 0
-108 -136 -80 -104 0
-108 -136 -112 -104 0
-108 -80 -112 -104 0
-109 -110 0
-109 -111 0
-109 -112 0
-110 -111 0
-110 -112 0
-111 -112 0
-109 137 81 0
-109 137 105 0
-109 81 105 0
-110 138 82 0
-110 138 106 0
-110 82 106 0
-111 139 83 0
-111 139 107 0
-111 83 107 0
-112 140 84 0
-112 140 108 0
-112 84 108 0
-109 -137 -81 -105 0
-110 -138 -82 -106 0
-111 -139 -83 -107 0
-112 -140 -84 -108 0
-113 0
-114 0
-115 0
116 0
88 120 0
-88 -120 0
-117 -118 0
-117 -119 0
-117 -120 0
-118 -119 0
-118 -120 0
-119 -120 0
-117 113 89 0
-117 89 121 0
-117 113 121 0
-118 114 90 0
-118 90 122 0
-118 114 122 0
-119 115 91 0
-119 91 123 0
-119 115 123 0
-120 116 92 0
-120 92 124 0
-120 116 124 0
-117 -89 -113 -121 0
-118 -90 -114 -122 0
-119 -91 -115 -123 0
-120 -92 -116 -124 0
-121 -122 0
-121 -123 0
-121 -124 0
-122 -123 0
-122 -124 0
-123 -124 0
-121 117 93 0
-121 93 125 0
-121 117 125 0
-122 118 94 0
-122 94 126 0
-122 118 126 0
-123 119 95 0
-123 95 127 0
-123 119 127 0
-124 120 96 0
-124 96 128 0
-124 120 128 0
-121 -93 -117 -125 0
-122 -94 -118 -126 0
-123 -95 -119 -127 0
-124 -96 -120 -128 0
-125 -126 0
-125 -127 0
-125 -128 0
-126 -127 0
-126 -128 0
-127 -128 0
-125 121 97 0
-125 97 129 0
-125 121 129 0
-126 122 98 0
-126 98 130 0
-126 122 130 0
-127 123 99 0
-127 99 131 0
-127 123 131 0
-128 124 100 0
-128 100 132 0
-128 124 132 0
-125 -97 -121 -129 0
-126 -98 -122 -130 0
-127 -99 -123 -131 0
-128 -100 -124 -132 0
-129 -130 0
-129 -131 0
-129 -132 0
-130 -131 0
-130 -132 0
-131 -132 0
-129 125 101 0
-129 101 133 0
-129 125 133 0
-130 126 102 0
-130 102 134 0
-130 126 134 0
-131 127 103 0
-131 103 135 0
-131 127 135 0
-132 128 104 0
-132 104 136 0
-132 128 136 0
-129 -101 -125 -133 0
-130 -102 -126 -134 0
-131 -103 -127 -135 0
-132 -104 -128 -136 0
-133 -134 0
-133 -135 0
-133 -136 0
-134 -135 0
-134 -136 0
-135 -136 0
-133 129 105 0
-133 105 137 0
-133 129 137 0
-134 130 106 0
-134 106 138 0
-134 130 138 0
-135 131 107 0
-135 107 139 0
-135 131 139 0
-136 132 108 0
-136 108 140 0
-136 132 140 0
-133 -105 -129 -137 0
-134 -106 -130 -138 0
-135 -107 -131 -139 0
-136 -108 -132 -140 0
-137 0
-138 0
-140 0
139 0
111 135 0
-111 -135 0